(set-logic QF_LRA)
(declare-fun T1 () Real )
(declare-fun T2 () Real )
(declare-fun T3 () Real )
(declare-fun T4 () Real )
(declare-fun T5 () Real )
(declare-fun T6 () Real )
(declare-fun T7 () Real )
(declare-fun T8 () Real )
(declare-fun T9 () Real )
(declare-fun T10 () Real )
(declare-fun Z () Real )
(declare-fun k () Real )
(assert (let
(( $goal (>= Z k) ))
(let
((
$phi ( and 
(or ( <= ( + T1 38 ) T2 ) ( <= ( + T2 56 ) T1 ) )
(or ( <= ( + T1 46 )  ( + T2 56 ) ) ( <= ( + T2 122 )( + T1 38 ) ) )
(or ( <= ( + T1 128 )  ( + T2 122 ) ) ( <= ( + T2 219 )( + T1 46 ) ) )
(or ( <= ( + T1 183 )  ( + T2 219 ) ) ( <= ( + T2 274 )( + T1 128 ) ) )
(or ( <= ( + T1 255 )  ( + T2 274 ) ) ( <= ( + T2 322 )( + T1 183 ) ) )
(or ( <= ( + T1 335 )  ( + T2 322 ) ) ( <= ( + T2 368 )( + T1 255 ) ) )
(or ( <= ( + T1 421 )  ( + T2 368 ) ) ( <= ( + T2 370 )( + T1 335 ) ) )
(or ( <= ( + T1 509 )  ( + T2 370 ) ) ( <= ( + T2 438 )( + T1 421 ) ) )
(or ( <= ( + T1 38 ) T3 ) ( <= ( + T3 27 ) T1 ) )
(or ( <= ( + T1 46 )  ( + T3 27 ) ) ( <= ( + T3 29 )( + T1 38 ) ) )
(or ( <= ( + T1 128 )  ( + T3 29 ) ) ( <= ( + T3 108 )( + T1 46 ) ) )
(or ( <= ( + T1 183 )  ( + T3 108 ) ) ( <= ( + T3 171 )( + T1 128 ) ) )
(or ( <= ( + T1 255 )  ( + T3 171 ) ) ( <= ( + T3 271 )( + T1 183 ) ) )
(or ( <= ( + T1 335 )  ( + T3 271 ) ) ( <= ( + T3 328 )( + T1 255 ) ) )
(or ( <= ( + T1 421 )  ( + T3 328 ) ) ( <= ( + T3 341 )( + T1 335 ) ) )
(or ( <= ( + T1 509 )  ( + T3 341 ) ) ( <= ( + T3 435 )( + T1 421 ) ) )
(or ( <= ( + T1 38 ) T4 ) ( <= ( + T4 29 ) T1 ) )
(or ( <= ( + T1 46 )  ( + T4 29 ) ) ( <= ( + T4 80 )( + T1 38 ) ) )
(or ( <= ( + T1 128 )  ( + T4 80 ) ) ( <= ( + T4 111 )( + T1 46 ) ) )
(or ( <= ( + T1 183 )  ( + T4 111 ) ) ( <= ( + T4 119 )( + T1 128 ) ) )
(or ( <= ( + T1 255 )  ( + T4 119 ) ) ( <= ( + T4 122 )( + T1 183 ) ) )
(or ( <= ( + T1 335 )  ( + T4 122 ) ) ( <= ( + T4 208 )( + T1 255 ) ) )
(or ( <= ( + T1 421 )  ( + T4 208 ) ) ( <= ( + T4 283 )( + T1 335 ) ) )
(or ( <= ( + T1 509 )  ( + T4 283 ) ) ( <= ( + T4 324 )( + T1 421 ) ) )
(or ( <= ( + T1 38 ) T5 ) ( <= ( + T5 93 ) T1 ) )
(or ( <= ( + T1 46 )  ( + T5 93 ) ) ( <= ( + T5 149 )( + T1 38 ) ) )
(or ( <= ( + T1 128 )  ( + T5 149 ) ) ( <= ( + T5 196 )( + T1 46 ) ) )
(or ( <= ( + T1 183 )  ( + T5 196 ) ) ( <= ( + T5 212 )( + T1 128 ) ) )
(or ( <= ( + T1 255 )  ( + T5 212 ) ) ( <= ( + T5 300 )( + T1 183 ) ) )
(or ( <= ( + T1 335 )  ( + T5 300 ) ) ( <= ( + T5 332 )( + T1 255 ) ) )
(or ( <= ( + T1 421 )  ( + T5 332 ) ) ( <= ( + T5 335 )( + T1 335 ) ) )
(or ( <= ( + T1 509 )  ( + T5 335 ) ) ( <= ( + T5 430 )( + T1 421 ) ) )
(or ( <= ( + T1 38 ) T6 ) ( <= ( + T6 97 ) T1 ) )
(or ( <= ( + T1 46 )  ( + T6 97 ) ) ( <= ( + T6 149 )( + T1 38 ) ) )
(or ( <= ( + T1 128 )  ( + T6 149 ) ) ( <= ( + T6 198 )( + T1 46 ) ) )
(or ( <= ( + T1 183 )  ( + T6 198 ) ) ( <= ( + T6 295 )( + T1 128 ) ) )
(or ( <= ( + T1 255 )  ( + T6 295 ) ) ( <= ( + T6 392 )( + T1 183 ) ) )
(or ( <= ( + T1 335 )  ( + T6 392 ) ) ( <= ( + T6 394 )( + T1 255 ) ) )
(or ( <= ( + T1 421 )  ( + T6 394 ) ) ( <= ( + T6 458 )( + T1 335 ) ) )
(or ( <= ( + T1 509 )  ( + T6 458 ) ) ( <= ( + T6 482 )( + T1 421 ) ) )
(or ( <= ( + T1 38 ) T7 ) ( <= ( + T7 4 ) T1 ) )
(or ( <= ( + T1 46 )  ( + T7 4 ) ) ( <= ( + T7 98 )( + T1 38 ) ) )
(or ( <= ( + T1 128 )  ( + T7 98 ) ) ( <= ( + T7 184 )( + T1 46 ) ) )
(or ( <= ( + T1 183 )  ( + T7 184 ) ) ( <= ( + T7 239 )( + T1 128 ) ) )
(or ( <= ( + T1 255 )  ( + T7 239 ) ) ( <= ( + T7 242 )( + T1 183 ) ) )
(or ( <= ( + T1 335 )  ( + T7 242 ) ) ( <= ( + T7 293 )( + T1 255 ) ) )
(or ( <= ( + T1 421 )  ( + T7 293 ) ) ( <= ( + T7 341 )( + T1 335 ) ) )
(or ( <= ( + T1 509 )  ( + T7 341 ) ) ( <= ( + T7 424 )( + T1 421 ) ) )
(or ( <= ( + T1 38 ) T8 ) ( <= ( + T8 53 ) T1 ) )
(or ( <= ( + T1 46 )  ( + T8 53 ) ) ( <= ( + T8 84 )( + T1 38 ) ) )
(or ( <= ( + T1 128 )  ( + T8 84 ) ) ( <= ( + T8 175 )( + T1 46 ) ) )
(or ( <= ( + T1 183 )  ( + T8 175 ) ) ( <= ( + T8 183 )( + T1 128 ) ) )
(or ( <= ( + T1 255 )  ( + T8 183 ) ) ( <= ( + T8 199 )( + T1 183 ) ) )
(or ( <= ( + T1 335 )  ( + T8 199 ) ) ( <= ( + T8 264 )( + T1 255 ) ) )
(or ( <= ( + T1 421 )  ( + T8 264 ) ) ( <= ( + T8 364 )( + T1 335 ) ) )
(or ( <= ( + T1 509 )  ( + T8 364 ) ) ( <= ( + T8 424 )( + T1 421 ) ) )
(or ( <= ( + T1 38 ) T9 ) ( <= ( + T9 73 ) T1 ) )
(or ( <= ( + T1 46 )  ( + T9 73 ) ) ( <= ( + T9 119 )( + T1 38 ) ) )
(or ( <= ( + T1 128 )  ( + T9 119 ) ) ( <= ( + T9 146 )( + T1 46 ) ) )
(or ( <= ( + T1 183 )  ( + T9 146 ) ) ( <= ( + T9 158 )( + T1 128 ) ) )
(or ( <= ( + T1 255 )  ( + T9 158 ) ) ( <= ( + T9 236 )( + T1 183 ) ) )
(or ( <= ( + T1 335 )  ( + T9 236 ) ) ( <= ( + T9 318 )( + T1 255 ) ) )
(or ( <= ( + T1 421 )  ( + T9 318 ) ) ( <= ( + T9 324 )( + T1 335 ) ) )
(or ( <= ( + T1 509 )  ( + T9 324 ) ) ( <= ( + T9 350 )( + T1 421 ) ) )
(or ( <= ( + T1 38 ) T10 ) ( <= ( + T10 33 ) T1 ) )
(or ( <= ( + T1 46 )  ( + T10 33 ) ) ( <= ( + T10 39 )( + T1 38 ) ) )
(or ( <= ( + T1 128 )  ( + T10 39 ) ) ( <= ( + T10 61 )( + T1 46 ) ) )
(or ( <= ( + T1 183 )  ( + T10 61 ) ) ( <= ( + T10 90 )( + T1 128 ) ) )
(or ( <= ( + T1 255 )  ( + T10 90 ) ) ( <= ( + T10 98 )( + T1 183 ) ) )
(or ( <= ( + T1 335 )  ( + T10 98 ) ) ( <= ( + T10 135 )( + T1 255 ) ) )
(or ( <= ( + T1 421 )  ( + T10 135 ) ) ( <= ( + T10 139 )( + T1 335 ) ) )
(or ( <= ( + T1 509 )  ( + T10 139 ) ) ( <= ( + T10 150 )( + T1 421 ) ) )
(or ( <= ( + T2 56 ) T3 ) ( <= ( + T3 27 ) T2 ) )
(or ( <= ( + T2 122 )  ( + T3 27 ) ) ( <= ( + T3 29 )( + T2 56 ) ) )
(or ( <= ( + T2 219 )  ( + T3 29 ) ) ( <= ( + T3 108 )( + T2 122 ) ) )
(or ( <= ( + T2 274 )  ( + T3 108 ) ) ( <= ( + T3 171 )( + T2 219 ) ) )
(or ( <= ( + T2 322 )  ( + T3 171 ) ) ( <= ( + T3 271 )( + T2 274 ) ) )
(or ( <= ( + T2 368 )  ( + T3 271 ) ) ( <= ( + T3 328 )( + T2 322 ) ) )
(or ( <= ( + T2 370 )  ( + T3 328 ) ) ( <= ( + T3 341 )( + T2 368 ) ) )
(or ( <= ( + T2 438 )  ( + T3 341 ) ) ( <= ( + T3 435 )( + T2 370 ) ) )
(or ( <= ( + T2 56 ) T4 ) ( <= ( + T4 29 ) T2 ) )
(or ( <= ( + T2 122 )  ( + T4 29 ) ) ( <= ( + T4 80 )( + T2 56 ) ) )
(or ( <= ( + T2 219 )  ( + T4 80 ) ) ( <= ( + T4 111 )( + T2 122 ) ) )
(or ( <= ( + T2 274 )  ( + T4 111 ) ) ( <= ( + T4 119 )( + T2 219 ) ) )
(or ( <= ( + T2 322 )  ( + T4 119 ) ) ( <= ( + T4 122 )( + T2 274 ) ) )
(or ( <= ( + T2 368 )  ( + T4 122 ) ) ( <= ( + T4 208 )( + T2 322 ) ) )
(or ( <= ( + T2 370 )  ( + T4 208 ) ) ( <= ( + T4 283 )( + T2 368 ) ) )
(or ( <= ( + T2 438 )  ( + T4 283 ) ) ( <= ( + T4 324 )( + T2 370 ) ) )
(or ( <= ( + T2 56 ) T5 ) ( <= ( + T5 93 ) T2 ) )
(or ( <= ( + T2 122 )  ( + T5 93 ) ) ( <= ( + T5 149 )( + T2 56 ) ) )
(or ( <= ( + T2 219 )  ( + T5 149 ) ) ( <= ( + T5 196 )( + T2 122 ) ) )
(or ( <= ( + T2 274 )  ( + T5 196 ) ) ( <= ( + T5 212 )( + T2 219 ) ) )
(or ( <= ( + T2 322 )  ( + T5 212 ) ) ( <= ( + T5 300 )( + T2 274 ) ) )
(or ( <= ( + T2 368 )  ( + T5 300 ) ) ( <= ( + T5 332 )( + T2 322 ) ) )
(or ( <= ( + T2 370 )  ( + T5 332 ) ) ( <= ( + T5 335 )( + T2 368 ) ) )
(or ( <= ( + T2 438 )  ( + T5 335 ) ) ( <= ( + T5 430 )( + T2 370 ) ) )
(or ( <= ( + T2 56 ) T6 ) ( <= ( + T6 97 ) T2 ) )
(or ( <= ( + T2 122 )  ( + T6 97 ) ) ( <= ( + T6 149 )( + T2 56 ) ) )
(or ( <= ( + T2 219 )  ( + T6 149 ) ) ( <= ( + T6 198 )( + T2 122 ) ) )
(or ( <= ( + T2 274 )  ( + T6 198 ) ) ( <= ( + T6 295 )( + T2 219 ) ) )
(or ( <= ( + T2 322 )  ( + T6 295 ) ) ( <= ( + T6 392 )( + T2 274 ) ) )
(or ( <= ( + T2 368 )  ( + T6 392 ) ) ( <= ( + T6 394 )( + T2 322 ) ) )
(or ( <= ( + T2 370 )  ( + T6 394 ) ) ( <= ( + T6 458 )( + T2 368 ) ) )
(or ( <= ( + T2 438 )  ( + T6 458 ) ) ( <= ( + T6 482 )( + T2 370 ) ) )
(or ( <= ( + T2 56 ) T7 ) ( <= ( + T7 4 ) T2 ) )
(or ( <= ( + T2 122 )  ( + T7 4 ) ) ( <= ( + T7 98 )( + T2 56 ) ) )
(or ( <= ( + T2 219 )  ( + T7 98 ) ) ( <= ( + T7 184 )( + T2 122 ) ) )
(or ( <= ( + T2 274 )  ( + T7 184 ) ) ( <= ( + T7 239 )( + T2 219 ) ) )
(or ( <= ( + T2 322 )  ( + T7 239 ) ) ( <= ( + T7 242 )( + T2 274 ) ) )
(or ( <= ( + T2 368 )  ( + T7 242 ) ) ( <= ( + T7 293 )( + T2 322 ) ) )
(or ( <= ( + T2 370 )  ( + T7 293 ) ) ( <= ( + T7 341 )( + T2 368 ) ) )
(or ( <= ( + T2 438 )  ( + T7 341 ) ) ( <= ( + T7 424 )( + T2 370 ) ) )
(or ( <= ( + T2 56 ) T8 ) ( <= ( + T8 53 ) T2 ) )
(or ( <= ( + T2 122 )  ( + T8 53 ) ) ( <= ( + T8 84 )( + T2 56 ) ) )
(or ( <= ( + T2 219 )  ( + T8 84 ) ) ( <= ( + T8 175 )( + T2 122 ) ) )
(or ( <= ( + T2 274 )  ( + T8 175 ) ) ( <= ( + T8 183 )( + T2 219 ) ) )
(or ( <= ( + T2 322 )  ( + T8 183 ) ) ( <= ( + T8 199 )( + T2 274 ) ) )
(or ( <= ( + T2 368 )  ( + T8 199 ) ) ( <= ( + T8 264 )( + T2 322 ) ) )
(or ( <= ( + T2 370 )  ( + T8 264 ) ) ( <= ( + T8 364 )( + T2 368 ) ) )
(or ( <= ( + T2 438 )  ( + T8 364 ) ) ( <= ( + T8 424 )( + T2 370 ) ) )
(or ( <= ( + T2 56 ) T9 ) ( <= ( + T9 73 ) T2 ) )
(or ( <= ( + T2 122 )  ( + T9 73 ) ) ( <= ( + T9 119 )( + T2 56 ) ) )
(or ( <= ( + T2 219 )  ( + T9 119 ) ) ( <= ( + T9 146 )( + T2 122 ) ) )
(or ( <= ( + T2 274 )  ( + T9 146 ) ) ( <= ( + T9 158 )( + T2 219 ) ) )
(or ( <= ( + T2 322 )  ( + T9 158 ) ) ( <= ( + T9 236 )( + T2 274 ) ) )
(or ( <= ( + T2 368 )  ( + T9 236 ) ) ( <= ( + T9 318 )( + T2 322 ) ) )
(or ( <= ( + T2 370 )  ( + T9 318 ) ) ( <= ( + T9 324 )( + T2 368 ) ) )
(or ( <= ( + T2 438 )  ( + T9 324 ) ) ( <= ( + T9 350 )( + T2 370 ) ) )
(or ( <= ( + T2 56 ) T10 ) ( <= ( + T10 33 ) T2 ) )
(or ( <= ( + T2 122 )  ( + T10 33 ) ) ( <= ( + T10 39 )( + T2 56 ) ) )
(or ( <= ( + T2 219 )  ( + T10 39 ) ) ( <= ( + T10 61 )( + T2 122 ) ) )
(or ( <= ( + T2 274 )  ( + T10 61 ) ) ( <= ( + T10 90 )( + T2 219 ) ) )
(or ( <= ( + T2 322 )  ( + T10 90 ) ) ( <= ( + T10 98 )( + T2 274 ) ) )
(or ( <= ( + T2 368 )  ( + T10 98 ) ) ( <= ( + T10 135 )( + T2 322 ) ) )
(or ( <= ( + T2 370 )  ( + T10 135 ) ) ( <= ( + T10 139 )( + T2 368 ) ) )
(or ( <= ( + T2 438 )  ( + T10 139 ) ) ( <= ( + T10 150 )( + T2 370 ) ) )
(or ( <= ( + T3 27 ) T4 ) ( <= ( + T4 29 ) T3 ) )
(or ( <= ( + T3 29 )  ( + T4 29 ) ) ( <= ( + T4 80 )( + T3 27 ) ) )
(or ( <= ( + T3 108 )  ( + T4 80 ) ) ( <= ( + T4 111 )( + T3 29 ) ) )
(or ( <= ( + T3 171 )  ( + T4 111 ) ) ( <= ( + T4 119 )( + T3 108 ) ) )
(or ( <= ( + T3 271 )  ( + T4 119 ) ) ( <= ( + T4 122 )( + T3 171 ) ) )
(or ( <= ( + T3 328 )  ( + T4 122 ) ) ( <= ( + T4 208 )( + T3 271 ) ) )
(or ( <= ( + T3 341 )  ( + T4 208 ) ) ( <= ( + T4 283 )( + T3 328 ) ) )
(or ( <= ( + T3 435 )  ( + T4 283 ) ) ( <= ( + T4 324 )( + T3 341 ) ) )
(or ( <= ( + T3 27 ) T5 ) ( <= ( + T5 93 ) T3 ) )
(or ( <= ( + T3 29 )  ( + T5 93 ) ) ( <= ( + T5 149 )( + T3 27 ) ) )
(or ( <= ( + T3 108 )  ( + T5 149 ) ) ( <= ( + T5 196 )( + T3 29 ) ) )
(or ( <= ( + T3 171 )  ( + T5 196 ) ) ( <= ( + T5 212 )( + T3 108 ) ) )
(or ( <= ( + T3 271 )  ( + T5 212 ) ) ( <= ( + T5 300 )( + T3 171 ) ) )
(or ( <= ( + T3 328 )  ( + T5 300 ) ) ( <= ( + T5 332 )( + T3 271 ) ) )
(or ( <= ( + T3 341 )  ( + T5 332 ) ) ( <= ( + T5 335 )( + T3 328 ) ) )
(or ( <= ( + T3 435 )  ( + T5 335 ) ) ( <= ( + T5 430 )( + T3 341 ) ) )
(or ( <= ( + T3 27 ) T6 ) ( <= ( + T6 97 ) T3 ) )
(or ( <= ( + T3 29 )  ( + T6 97 ) ) ( <= ( + T6 149 )( + T3 27 ) ) )
(or ( <= ( + T3 108 )  ( + T6 149 ) ) ( <= ( + T6 198 )( + T3 29 ) ) )
(or ( <= ( + T3 171 )  ( + T6 198 ) ) ( <= ( + T6 295 )( + T3 108 ) ) )
(or ( <= ( + T3 271 )  ( + T6 295 ) ) ( <= ( + T6 392 )( + T3 171 ) ) )
(or ( <= ( + T3 328 )  ( + T6 392 ) ) ( <= ( + T6 394 )( + T3 271 ) ) )
(or ( <= ( + T3 341 )  ( + T6 394 ) ) ( <= ( + T6 458 )( + T3 328 ) ) )
(or ( <= ( + T3 435 )  ( + T6 458 ) ) ( <= ( + T6 482 )( + T3 341 ) ) )
(or ( <= ( + T3 27 ) T7 ) ( <= ( + T7 4 ) T3 ) )
(or ( <= ( + T3 29 )  ( + T7 4 ) ) ( <= ( + T7 98 )( + T3 27 ) ) )
(or ( <= ( + T3 108 )  ( + T7 98 ) ) ( <= ( + T7 184 )( + T3 29 ) ) )
(or ( <= ( + T3 171 )  ( + T7 184 ) ) ( <= ( + T7 239 )( + T3 108 ) ) )
(or ( <= ( + T3 271 )  ( + T7 239 ) ) ( <= ( + T7 242 )( + T3 171 ) ) )
(or ( <= ( + T3 328 )  ( + T7 242 ) ) ( <= ( + T7 293 )( + T3 271 ) ) )
(or ( <= ( + T3 341 )  ( + T7 293 ) ) ( <= ( + T7 341 )( + T3 328 ) ) )
(or ( <= ( + T3 435 )  ( + T7 341 ) ) ( <= ( + T7 424 )( + T3 341 ) ) )
(or ( <= ( + T3 27 ) T8 ) ( <= ( + T8 53 ) T3 ) )
(or ( <= ( + T3 29 )  ( + T8 53 ) ) ( <= ( + T8 84 )( + T3 27 ) ) )
(or ( <= ( + T3 108 )  ( + T8 84 ) ) ( <= ( + T8 175 )( + T3 29 ) ) )
(or ( <= ( + T3 171 )  ( + T8 175 ) ) ( <= ( + T8 183 )( + T3 108 ) ) )
(or ( <= ( + T3 271 )  ( + T8 183 ) ) ( <= ( + T8 199 )( + T3 171 ) ) )
(or ( <= ( + T3 328 )  ( + T8 199 ) ) ( <= ( + T8 264 )( + T3 271 ) ) )
(or ( <= ( + T3 341 )  ( + T8 264 ) ) ( <= ( + T8 364 )( + T3 328 ) ) )
(or ( <= ( + T3 435 )  ( + T8 364 ) ) ( <= ( + T8 424 )( + T3 341 ) ) )
(or ( <= ( + T3 27 ) T9 ) ( <= ( + T9 73 ) T3 ) )
(or ( <= ( + T3 29 )  ( + T9 73 ) ) ( <= ( + T9 119 )( + T3 27 ) ) )
(or ( <= ( + T3 108 )  ( + T9 119 ) ) ( <= ( + T9 146 )( + T3 29 ) ) )
(or ( <= ( + T3 171 )  ( + T9 146 ) ) ( <= ( + T9 158 )( + T3 108 ) ) )
(or ( <= ( + T3 271 )  ( + T9 158 ) ) ( <= ( + T9 236 )( + T3 171 ) ) )
(or ( <= ( + T3 328 )  ( + T9 236 ) ) ( <= ( + T9 318 )( + T3 271 ) ) )
(or ( <= ( + T3 341 )  ( + T9 318 ) ) ( <= ( + T9 324 )( + T3 328 ) ) )
(or ( <= ( + T3 435 )  ( + T9 324 ) ) ( <= ( + T9 350 )( + T3 341 ) ) )
(or ( <= ( + T3 27 ) T10 ) ( <= ( + T10 33 ) T3 ) )
(or ( <= ( + T3 29 )  ( + T10 33 ) ) ( <= ( + T10 39 )( + T3 27 ) ) )
(or ( <= ( + T3 108 )  ( + T10 39 ) ) ( <= ( + T10 61 )( + T3 29 ) ) )
(or ( <= ( + T3 171 )  ( + T10 61 ) ) ( <= ( + T10 90 )( + T3 108 ) ) )
(or ( <= ( + T3 271 )  ( + T10 90 ) ) ( <= ( + T10 98 )( + T3 171 ) ) )
(or ( <= ( + T3 328 )  ( + T10 98 ) ) ( <= ( + T10 135 )( + T3 271 ) ) )
(or ( <= ( + T3 341 )  ( + T10 135 ) ) ( <= ( + T10 139 )( + T3 328 ) ) )
(or ( <= ( + T3 435 )  ( + T10 139 ) ) ( <= ( + T10 150 )( + T3 341 ) ) )
(or ( <= ( + T4 29 ) T5 ) ( <= ( + T5 93 ) T4 ) )
(or ( <= ( + T4 80 )  ( + T5 93 ) ) ( <= ( + T5 149 )( + T4 29 ) ) )
(or ( <= ( + T4 111 )  ( + T5 149 ) ) ( <= ( + T5 196 )( + T4 80 ) ) )
(or ( <= ( + T4 119 )  ( + T5 196 ) ) ( <= ( + T5 212 )( + T4 111 ) ) )
(or ( <= ( + T4 122 )  ( + T5 212 ) ) ( <= ( + T5 300 )( + T4 119 ) ) )
(or ( <= ( + T4 208 )  ( + T5 300 ) ) ( <= ( + T5 332 )( + T4 122 ) ) )
(or ( <= ( + T4 283 )  ( + T5 332 ) ) ( <= ( + T5 335 )( + T4 208 ) ) )
(or ( <= ( + T4 324 )  ( + T5 335 ) ) ( <= ( + T5 430 )( + T4 283 ) ) )
(or ( <= ( + T4 29 ) T6 ) ( <= ( + T6 97 ) T4 ) )
(or ( <= ( + T4 80 )  ( + T6 97 ) ) ( <= ( + T6 149 )( + T4 29 ) ) )
(or ( <= ( + T4 111 )  ( + T6 149 ) ) ( <= ( + T6 198 )( + T4 80 ) ) )
(or ( <= ( + T4 119 )  ( + T6 198 ) ) ( <= ( + T6 295 )( + T4 111 ) ) )
(or ( <= ( + T4 122 )  ( + T6 295 ) ) ( <= ( + T6 392 )( + T4 119 ) ) )
(or ( <= ( + T4 208 )  ( + T6 392 ) ) ( <= ( + T6 394 )( + T4 122 ) ) )
(or ( <= ( + T4 283 )  ( + T6 394 ) ) ( <= ( + T6 458 )( + T4 208 ) ) )
(or ( <= ( + T4 324 )  ( + T6 458 ) ) ( <= ( + T6 482 )( + T4 283 ) ) )
(or ( <= ( + T4 29 ) T7 ) ( <= ( + T7 4 ) T4 ) )
(or ( <= ( + T4 80 )  ( + T7 4 ) ) ( <= ( + T7 98 )( + T4 29 ) ) )
(or ( <= ( + T4 111 )  ( + T7 98 ) ) ( <= ( + T7 184 )( + T4 80 ) ) )
(or ( <= ( + T4 119 )  ( + T7 184 ) ) ( <= ( + T7 239 )( + T4 111 ) ) )
(or ( <= ( + T4 122 )  ( + T7 239 ) ) ( <= ( + T7 242 )( + T4 119 ) ) )
(or ( <= ( + T4 208 )  ( + T7 242 ) ) ( <= ( + T7 293 )( + T4 122 ) ) )
(or ( <= ( + T4 283 )  ( + T7 293 ) ) ( <= ( + T7 341 )( + T4 208 ) ) )
(or ( <= ( + T4 324 )  ( + T7 341 ) ) ( <= ( + T7 424 )( + T4 283 ) ) )
(or ( <= ( + T4 29 ) T8 ) ( <= ( + T8 53 ) T4 ) )
(or ( <= ( + T4 80 )  ( + T8 53 ) ) ( <= ( + T8 84 )( + T4 29 ) ) )
(or ( <= ( + T4 111 )  ( + T8 84 ) ) ( <= ( + T8 175 )( + T4 80 ) ) )
(or ( <= ( + T4 119 )  ( + T8 175 ) ) ( <= ( + T8 183 )( + T4 111 ) ) )
(or ( <= ( + T4 122 )  ( + T8 183 ) ) ( <= ( + T8 199 )( + T4 119 ) ) )
(or ( <= ( + T4 208 )  ( + T8 199 ) ) ( <= ( + T8 264 )( + T4 122 ) ) )
(or ( <= ( + T4 283 )  ( + T8 264 ) ) ( <= ( + T8 364 )( + T4 208 ) ) )
(or ( <= ( + T4 324 )  ( + T8 364 ) ) ( <= ( + T8 424 )( + T4 283 ) ) )
(or ( <= ( + T4 29 ) T9 ) ( <= ( + T9 73 ) T4 ) )
(or ( <= ( + T4 80 )  ( + T9 73 ) ) ( <= ( + T9 119 )( + T4 29 ) ) )
(or ( <= ( + T4 111 )  ( + T9 119 ) ) ( <= ( + T9 146 )( + T4 80 ) ) )
(or ( <= ( + T4 119 )  ( + T9 146 ) ) ( <= ( + T9 158 )( + T4 111 ) ) )
(or ( <= ( + T4 122 )  ( + T9 158 ) ) ( <= ( + T9 236 )( + T4 119 ) ) )
(or ( <= ( + T4 208 )  ( + T9 236 ) ) ( <= ( + T9 318 )( + T4 122 ) ) )
(or ( <= ( + T4 283 )  ( + T9 318 ) ) ( <= ( + T9 324 )( + T4 208 ) ) )
(or ( <= ( + T4 324 )  ( + T9 324 ) ) ( <= ( + T9 350 )( + T4 283 ) ) )
(or ( <= ( + T4 29 ) T10 ) ( <= ( + T10 33 ) T4 ) )
(or ( <= ( + T4 80 )  ( + T10 33 ) ) ( <= ( + T10 39 )( + T4 29 ) ) )
(or ( <= ( + T4 111 )  ( + T10 39 ) ) ( <= ( + T10 61 )( + T4 80 ) ) )
(or ( <= ( + T4 119 )  ( + T10 61 ) ) ( <= ( + T10 90 )( + T4 111 ) ) )
(or ( <= ( + T4 122 )  ( + T10 90 ) ) ( <= ( + T10 98 )( + T4 119 ) ) )
(or ( <= ( + T4 208 )  ( + T10 98 ) ) ( <= ( + T10 135 )( + T4 122 ) ) )
(or ( <= ( + T4 283 )  ( + T10 135 ) ) ( <= ( + T10 139 )( + T4 208 ) ) )
(or ( <= ( + T4 324 )  ( + T10 139 ) ) ( <= ( + T10 150 )( + T4 283 ) ) )
(or ( <= ( + T5 93 ) T6 ) ( <= ( + T6 97 ) T5 ) )
(or ( <= ( + T5 149 )  ( + T6 97 ) ) ( <= ( + T6 149 )( + T5 93 ) ) )
(or ( <= ( + T5 196 )  ( + T6 149 ) ) ( <= ( + T6 198 )( + T5 149 ) ) )
(or ( <= ( + T5 212 )  ( + T6 198 ) ) ( <= ( + T6 295 )( + T5 196 ) ) )
(or ( <= ( + T5 300 )  ( + T6 295 ) ) ( <= ( + T6 392 )( + T5 212 ) ) )
(or ( <= ( + T5 332 )  ( + T6 392 ) ) ( <= ( + T6 394 )( + T5 300 ) ) )
(or ( <= ( + T5 335 )  ( + T6 394 ) ) ( <= ( + T6 458 )( + T5 332 ) ) )
(or ( <= ( + T5 430 )  ( + T6 458 ) ) ( <= ( + T6 482 )( + T5 335 ) ) )
(or ( <= ( + T5 93 ) T7 ) ( <= ( + T7 4 ) T5 ) )
(or ( <= ( + T5 149 )  ( + T7 4 ) ) ( <= ( + T7 98 )( + T5 93 ) ) )
(or ( <= ( + T5 196 )  ( + T7 98 ) ) ( <= ( + T7 184 )( + T5 149 ) ) )
(or ( <= ( + T5 212 )  ( + T7 184 ) ) ( <= ( + T7 239 )( + T5 196 ) ) )
(or ( <= ( + T5 300 )  ( + T7 239 ) ) ( <= ( + T7 242 )( + T5 212 ) ) )
(or ( <= ( + T5 332 )  ( + T7 242 ) ) ( <= ( + T7 293 )( + T5 300 ) ) )
(or ( <= ( + T5 335 )  ( + T7 293 ) ) ( <= ( + T7 341 )( + T5 332 ) ) )
(or ( <= ( + T5 430 )  ( + T7 341 ) ) ( <= ( + T7 424 )( + T5 335 ) ) )
(or ( <= ( + T5 93 ) T8 ) ( <= ( + T8 53 ) T5 ) )
(or ( <= ( + T5 149 )  ( + T8 53 ) ) ( <= ( + T8 84 )( + T5 93 ) ) )
(or ( <= ( + T5 196 )  ( + T8 84 ) ) ( <= ( + T8 175 )( + T5 149 ) ) )
(or ( <= ( + T5 212 )  ( + T8 175 ) ) ( <= ( + T8 183 )( + T5 196 ) ) )
(or ( <= ( + T5 300 )  ( + T8 183 ) ) ( <= ( + T8 199 )( + T5 212 ) ) )
(or ( <= ( + T5 332 )  ( + T8 199 ) ) ( <= ( + T8 264 )( + T5 300 ) ) )
(or ( <= ( + T5 335 )  ( + T8 264 ) ) ( <= ( + T8 364 )( + T5 332 ) ) )
(or ( <= ( + T5 430 )  ( + T8 364 ) ) ( <= ( + T8 424 )( + T5 335 ) ) )
(or ( <= ( + T5 93 ) T9 ) ( <= ( + T9 73 ) T5 ) )
(or ( <= ( + T5 149 )  ( + T9 73 ) ) ( <= ( + T9 119 )( + T5 93 ) ) )
(or ( <= ( + T5 196 )  ( + T9 119 ) ) ( <= ( + T9 146 )( + T5 149 ) ) )
(or ( <= ( + T5 212 )  ( + T9 146 ) ) ( <= ( + T9 158 )( + T5 196 ) ) )
(or ( <= ( + T5 300 )  ( + T9 158 ) ) ( <= ( + T9 236 )( + T5 212 ) ) )
(or ( <= ( + T5 332 )  ( + T9 236 ) ) ( <= ( + T9 318 )( + T5 300 ) ) )
(or ( <= ( + T5 335 )  ( + T9 318 ) ) ( <= ( + T9 324 )( + T5 332 ) ) )
(or ( <= ( + T5 430 )  ( + T9 324 ) ) ( <= ( + T9 350 )( + T5 335 ) ) )
(or ( <= ( + T5 93 ) T10 ) ( <= ( + T10 33 ) T5 ) )
(or ( <= ( + T5 149 )  ( + T10 33 ) ) ( <= ( + T10 39 )( + T5 93 ) ) )
(or ( <= ( + T5 196 )  ( + T10 39 ) ) ( <= ( + T10 61 )( + T5 149 ) ) )
(or ( <= ( + T5 212 )  ( + T10 61 ) ) ( <= ( + T10 90 )( + T5 196 ) ) )
(or ( <= ( + T5 300 )  ( + T10 90 ) ) ( <= ( + T10 98 )( + T5 212 ) ) )
(or ( <= ( + T5 332 )  ( + T10 98 ) ) ( <= ( + T10 135 )( + T5 300 ) ) )
(or ( <= ( + T5 335 )  ( + T10 135 ) ) ( <= ( + T10 139 )( + T5 332 ) ) )
(or ( <= ( + T5 430 )  ( + T10 139 ) ) ( <= ( + T10 150 )( + T5 335 ) ) )
(or ( <= ( + T6 97 ) T7 ) ( <= ( + T7 4 ) T6 ) )
(or ( <= ( + T6 149 )  ( + T7 4 ) ) ( <= ( + T7 98 )( + T6 97 ) ) )
(or ( <= ( + T6 198 )  ( + T7 98 ) ) ( <= ( + T7 184 )( + T6 149 ) ) )
(or ( <= ( + T6 295 )  ( + T7 184 ) ) ( <= ( + T7 239 )( + T6 198 ) ) )
(or ( <= ( + T6 392 )  ( + T7 239 ) ) ( <= ( + T7 242 )( + T6 295 ) ) )
(or ( <= ( + T6 394 )  ( + T7 242 ) ) ( <= ( + T7 293 )( + T6 392 ) ) )
(or ( <= ( + T6 458 )  ( + T7 293 ) ) ( <= ( + T7 341 )( + T6 394 ) ) )
(or ( <= ( + T6 482 )  ( + T7 341 ) ) ( <= ( + T7 424 )( + T6 458 ) ) )
(or ( <= ( + T6 97 ) T8 ) ( <= ( + T8 53 ) T6 ) )
(or ( <= ( + T6 149 )  ( + T8 53 ) ) ( <= ( + T8 84 )( + T6 97 ) ) )
(or ( <= ( + T6 198 )  ( + T8 84 ) ) ( <= ( + T8 175 )( + T6 149 ) ) )
(or ( <= ( + T6 295 )  ( + T8 175 ) ) ( <= ( + T8 183 )( + T6 198 ) ) )
(or ( <= ( + T6 392 )  ( + T8 183 ) ) ( <= ( + T8 199 )( + T6 295 ) ) )
(or ( <= ( + T6 394 )  ( + T8 199 ) ) ( <= ( + T8 264 )( + T6 392 ) ) )
(or ( <= ( + T6 458 )  ( + T8 264 ) ) ( <= ( + T8 364 )( + T6 394 ) ) )
(or ( <= ( + T6 482 )  ( + T8 364 ) ) ( <= ( + T8 424 )( + T6 458 ) ) )
(or ( <= ( + T6 97 ) T9 ) ( <= ( + T9 73 ) T6 ) )
(or ( <= ( + T6 149 )  ( + T9 73 ) ) ( <= ( + T9 119 )( + T6 97 ) ) )
(or ( <= ( + T6 198 )  ( + T9 119 ) ) ( <= ( + T9 146 )( + T6 149 ) ) )
(or ( <= ( + T6 295 )  ( + T9 146 ) ) ( <= ( + T9 158 )( + T6 198 ) ) )
(or ( <= ( + T6 392 )  ( + T9 158 ) ) ( <= ( + T9 236 )( + T6 295 ) ) )
(or ( <= ( + T6 394 )  ( + T9 236 ) ) ( <= ( + T9 318 )( + T6 392 ) ) )
(or ( <= ( + T6 458 )  ( + T9 318 ) ) ( <= ( + T9 324 )( + T6 394 ) ) )
(or ( <= ( + T6 482 )  ( + T9 324 ) ) ( <= ( + T9 350 )( + T6 458 ) ) )
(or ( <= ( + T6 97 ) T10 ) ( <= ( + T10 33 ) T6 ) )
(or ( <= ( + T6 149 )  ( + T10 33 ) ) ( <= ( + T10 39 )( + T6 97 ) ) )
(or ( <= ( + T6 198 )  ( + T10 39 ) ) ( <= ( + T10 61 )( + T6 149 ) ) )
(or ( <= ( + T6 295 )  ( + T10 61 ) ) ( <= ( + T10 90 )( + T6 198 ) ) )
(or ( <= ( + T6 392 )  ( + T10 90 ) ) ( <= ( + T10 98 )( + T6 295 ) ) )
(or ( <= ( + T6 394 )  ( + T10 98 ) ) ( <= ( + T10 135 )( + T6 392 ) ) )
(or ( <= ( + T6 458 )  ( + T10 135 ) ) ( <= ( + T10 139 )( + T6 394 ) ) )
(or ( <= ( + T6 482 )  ( + T10 139 ) ) ( <= ( + T10 150 )( + T6 458 ) ) )
(or ( <= ( + T7 4 ) T8 ) ( <= ( + T8 53 ) T7 ) )
(or ( <= ( + T7 98 )  ( + T8 53 ) ) ( <= ( + T8 84 )( + T7 4 ) ) )
(or ( <= ( + T7 184 )  ( + T8 84 ) ) ( <= ( + T8 175 )( + T7 98 ) ) )
(or ( <= ( + T7 239 )  ( + T8 175 ) ) ( <= ( + T8 183 )( + T7 184 ) ) )
(or ( <= ( + T7 242 )  ( + T8 183 ) ) ( <= ( + T8 199 )( + T7 239 ) ) )
(or ( <= ( + T7 293 )  ( + T8 199 ) ) ( <= ( + T8 264 )( + T7 242 ) ) )
(or ( <= ( + T7 341 )  ( + T8 264 ) ) ( <= ( + T8 364 )( + T7 293 ) ) )
(or ( <= ( + T7 424 )  ( + T8 364 ) ) ( <= ( + T8 424 )( + T7 341 ) ) )
(or ( <= ( + T7 4 ) T9 ) ( <= ( + T9 73 ) T7 ) )
(or ( <= ( + T7 98 )  ( + T9 73 ) ) ( <= ( + T9 119 )( + T7 4 ) ) )
(or ( <= ( + T7 184 )  ( + T9 119 ) ) ( <= ( + T9 146 )( + T7 98 ) ) )
(or ( <= ( + T7 239 )  ( + T9 146 ) ) ( <= ( + T9 158 )( + T7 184 ) ) )
(or ( <= ( + T7 242 )  ( + T9 158 ) ) ( <= ( + T9 236 )( + T7 239 ) ) )
(or ( <= ( + T7 293 )  ( + T9 236 ) ) ( <= ( + T9 318 )( + T7 242 ) ) )
(or ( <= ( + T7 341 )  ( + T9 318 ) ) ( <= ( + T9 324 )( + T7 293 ) ) )
(or ( <= ( + T7 424 )  ( + T9 324 ) ) ( <= ( + T9 350 )( + T7 341 ) ) )
(or ( <= ( + T7 4 ) T10 ) ( <= ( + T10 33 ) T7 ) )
(or ( <= ( + T7 98 )  ( + T10 33 ) ) ( <= ( + T10 39 )( + T7 4 ) ) )
(or ( <= ( + T7 184 )  ( + T10 39 ) ) ( <= ( + T10 61 )( + T7 98 ) ) )
(or ( <= ( + T7 239 )  ( + T10 61 ) ) ( <= ( + T10 90 )( + T7 184 ) ) )
(or ( <= ( + T7 242 )  ( + T10 90 ) ) ( <= ( + T10 98 )( + T7 239 ) ) )
(or ( <= ( + T7 293 )  ( + T10 98 ) ) ( <= ( + T10 135 )( + T7 242 ) ) )
(or ( <= ( + T7 341 )  ( + T10 135 ) ) ( <= ( + T10 139 )( + T7 293 ) ) )
(or ( <= ( + T7 424 )  ( + T10 139 ) ) ( <= ( + T10 150 )( + T7 341 ) ) )
(or ( <= ( + T8 53 ) T9 ) ( <= ( + T9 73 ) T8 ) )
(or ( <= ( + T8 84 )  ( + T9 73 ) ) ( <= ( + T9 119 )( + T8 53 ) ) )
(or ( <= ( + T8 175 )  ( + T9 119 ) ) ( <= ( + T9 146 )( + T8 84 ) ) )
(or ( <= ( + T8 183 )  ( + T9 146 ) ) ( <= ( + T9 158 )( + T8 175 ) ) )
(or ( <= ( + T8 199 )  ( + T9 158 ) ) ( <= ( + T9 236 )( + T8 183 ) ) )
(or ( <= ( + T8 264 )  ( + T9 236 ) ) ( <= ( + T9 318 )( + T8 199 ) ) )
(or ( <= ( + T8 364 )  ( + T9 318 ) ) ( <= ( + T9 324 )( + T8 264 ) ) )
(or ( <= ( + T8 424 )  ( + T9 324 ) ) ( <= ( + T9 350 )( + T8 364 ) ) )
(or ( <= ( + T8 53 ) T10 ) ( <= ( + T10 33 ) T8 ) )
(or ( <= ( + T8 84 )  ( + T10 33 ) ) ( <= ( + T10 39 )( + T8 53 ) ) )
(or ( <= ( + T8 175 )  ( + T10 39 ) ) ( <= ( + T10 61 )( + T8 84 ) ) )
(or ( <= ( + T8 183 )  ( + T10 61 ) ) ( <= ( + T10 90 )( + T8 175 ) ) )
(or ( <= ( + T8 199 )  ( + T10 90 ) ) ( <= ( + T10 98 )( + T8 183 ) ) )
(or ( <= ( + T8 264 )  ( + T10 98 ) ) ( <= ( + T10 135 )( + T8 199 ) ) )
(or ( <= ( + T8 364 )  ( + T10 135 ) ) ( <= ( + T10 139 )( + T8 264 ) ) )
(or ( <= ( + T8 424 )  ( + T10 139 ) ) ( <= ( + T10 150 )( + T8 364 ) ) )
(or ( <= ( + T9 73 ) T10 ) ( <= ( + T10 33 ) T9 ) )
(or ( <= ( + T9 119 )  ( + T10 33 ) ) ( <= ( + T10 39 )( + T9 73 ) ) )
(or ( <= ( + T9 146 )  ( + T10 39 ) ) ( <= ( + T10 61 )( + T9 119 ) ) )
(or ( <= ( + T9 158 )  ( + T10 61 ) ) ( <= ( + T10 90 )( + T9 146 ) ) )
(or ( <= ( + T9 236 )  ( + T10 90 ) ) ( <= ( + T10 98 )( + T9 158 ) ) )
(or ( <= ( + T9 318 )  ( + T10 98 ) ) ( <= ( + T10 135 )( + T9 236 ) ) )
(or ( <= ( + T9 324 )  ( + T10 135 ) ) ( <= ( + T10 139 )( + T9 318 ) ) )
(or ( <= ( + T9 350 )  ( + T10 139 ) ) ( <= ( + T10 150 )( + T9 324 ) ) )
( <= ( + T1 509 ) Z)
( <= ( + T2 438 ) Z)
( <= ( + T3 435 ) Z)
( <= ( + T4 324 ) Z)
( <= ( + T5 430 ) Z)
( <= ( + T6 482 ) Z)
( <= ( + T7 424 ) Z)
( <= ( + T8 424 ) Z)
( <= ( + T9 350 ) Z)
( <= ( + T10 150 ) Z)
( >= T1 0 )
( >= T2 0 )
( >= T3 0 )
( >= T4 0 )
( >= T5 0 )
( >= T6 0 )
( >= T7 0 )
( >= T8 0 )
( >= T9 0 )
( >= T10 0 )
) )
)(=> $phi $goal))))